0001110001110101110
0001110011010001010
0001111001100001110
0001111001110001110
0001111011000101110
0001111011100001010
0001111011110001010
0010111001000000100
0011110001110101010
0011110011010001110
0011111001100001010
0011111001110001010
0011111011000101010
0011111011100001110
0011111011110001110
